(set-logic QF_LIA)
(declare-fun x0 () Int)
(declare-fun x1 () Int)
(declare-fun x2 () Int)
(declare-fun x3 () Int)
(declare-fun x4 () Int)
(declare-fun x5 () Int)
(declare-fun x6 () Int)
(declare-fun x7 () Int)
(declare-fun x8 () Int)
(declare-fun x9 () Int)
(declare-fun A0 () Bool)
(declare-fun A1 () Bool)
(declare-fun A2 () Bool)
(declare-fun A3 () Bool)
(declare-fun A4 () Bool)
(declare-fun A5 () Bool)
(declare-fun A6 () Bool)
(declare-fun A7 () Bool)
(declare-fun A8 () Bool)
(declare-fun A9 () Bool)
(assert (let ((.def_0 (not A2))) (let ((.def_1 (not A4))) (let ((.def_2 (or .def_1 .def_0))) (let ((.def_3 (* (- 1) x2))) (let ((.def_4 (< .def_3 (- 1)))) (let ((.def_5 (not .def_4))) (let ((.def_6 (= A1 .def_5))) (let ((.def_7 (not .def_6))) (let ((.def_8 (or .def_7 .def_2))) (let ((.def_9 (* (- 1) x1))) (let ((.def_10 (< .def_9 (- 1)))) (let ((.def_11 (not .def_10))) (let ((.def_12 (or A7 .def_11))) (let ((.def_13 (not .def_12))) (let ((.def_14 (* 1 x6))) (let ((.def_15 (+ .def_14 .def_3))) (let ((.def_16 (< .def_15 (- 1)))) (let ((.def_17 (not .def_16))) (let ((.def_18 (not A6))) (let ((.def_19 (and .def_18 .def_17))) (let ((.def_20 (not .def_19))) (let ((.def_21 (and .def_20 .def_13))) (let ((.def_22 (not .def_21))) (let ((.def_23 (and .def_22 .def_8))) (let ((.def_24 (not .def_23))) (let ((.def_25 (* (- 1) x4))) (let ((.def_26 (< .def_25 (- 1)))) (let ((.def_27 (= .def_26 A2))) (let ((.def_28 (not .def_27))) (let ((.def_29 (* (- 1) x7))) (let ((.def_30 (+ .def_29 .def_14))) (let ((.def_31 (< .def_30 1))) (let ((.def_32 (not .def_31))) (let ((.def_33 (* 1 x7))) (let ((.def_34 (* 1 x2))) (let ((.def_35 (+ .def_34 .def_33))) (let ((.def_36 (< .def_35 (- 1)))) (let ((.def_37 (not .def_36))) (let ((.def_38 (and .def_37 .def_32))) (let ((.def_39 (or .def_38 .def_28))) (let ((.def_40 (and .def_0 A6))) (let ((.def_41 (not .def_40))) (let ((.def_42 (* 1 x4))) (let ((.def_43 (+ .def_29 .def_42))) (let ((.def_44 (< .def_43 1))) (let ((.def_45 (* (- 1) x3))) (let ((.def_46 (+ .def_45 .def_33))) (let ((.def_47 (< .def_46 1))) (let ((.def_48 (not .def_47))) (let ((.def_49 (and .def_48 .def_44))) (let ((.def_50 (or .def_49 .def_41))) (let ((.def_51 (not .def_50))) (let ((.def_52 (and .def_51 .def_39))) (let ((.def_53 (not .def_52))) (let ((.def_54 (or .def_53 .def_24))) (let ((.def_55 (not .def_54))) (let ((.def_56 (not .def_26))) (let ((.def_57 (or .def_1 .def_56))) (let ((.def_58 (not .def_57))) (let ((.def_59 (* (- 1) x9))) (let ((.def_60 (+ .def_9 .def_59))) (let ((.def_61 (< .def_60 1))) (let ((.def_62 (not .def_61))) (let ((.def_63 (and .def_11 .def_62))) (let ((.def_64 (or .def_63 .def_58))) (let ((.def_65 (not .def_64))) (let ((.def_66 (not A0))) (let ((.def_67 (* 1 x3))) (let ((.def_68 (+ .def_59 .def_67))) (let ((.def_69 (< .def_68 (- 1)))) (let ((.def_70 (not .def_69))) (let ((.def_71 (= .def_70 .def_66))) (let ((.def_72 (not .def_71))) (let ((.def_73 (* (- 1) x6))) (let ((.def_74 (+ .def_73 .def_25))) (let ((.def_75 (< .def_74 (- 1)))) (let ((.def_76 (not .def_75))) (let ((.def_77 (< .def_45 (- 1)))) (let ((.def_78 (not .def_77))) (let ((.def_79 (or .def_78 .def_76))) (let ((.def_80 (and .def_79 .def_72))) (let ((.def_81 (not .def_80))) (let ((.def_82 (or .def_81 .def_65))) (let ((.def_83 (+ .def_29 .def_25))) (let ((.def_84 (< .def_83 1))) (let ((.def_85 (and A9 .def_84))) (let ((.def_86 (* (- 1) x8))) (let ((.def_87 (+ .def_86 .def_3))) (let ((.def_88 (< .def_87 (- 1)))) (let ((.def_89 (* 1 x9))) (let ((.def_90 (+ .def_89 .def_34))) (let ((.def_91 (< .def_90 1))) (let ((.def_92 (not .def_91))) (let ((.def_93 (or .def_92 .def_88))) (let ((.def_94 (not .def_93))) (let ((.def_95 (or .def_94 .def_85))) (let ((.def_96 (not A3))) (let ((.def_97 (* (- 1) x0))) (let ((.def_98 (* 1 x1))) (let ((.def_99 (+ .def_98 .def_97))) (let ((.def_100 (< .def_99 1))) (let ((.def_101 (or .def_100 .def_96))) (let ((.def_102 (not .def_101))) (let ((.def_103 (< .def_33 1))) (let ((.def_104 (not .def_103))) (let ((.def_105 (= A6 .def_104))) (let ((.def_106 (not .def_105))) (let ((.def_107 (= .def_106 .def_102))) (let ((.def_108 (not .def_107))) (let ((.def_109 (and .def_108 .def_95))) (let ((.def_110 (not .def_109))) (let ((.def_111 (and .def_110 .def_82))) (let ((.def_112 (and .def_111 .def_55))) (let ((.def_113 (or .def_96 .def_0))) (let ((.def_114 (not .def_113))) (let ((.def_115 (+ .def_73 .def_98))) (let ((.def_116 (< .def_115 (- 1)))) (let ((.def_117 (and .def_116 .def_96))) (let ((.def_118 (not .def_117))) (let ((.def_119 (= .def_118 .def_114))) (let ((.def_120 (< .def_33 (- 1)))) (let ((.def_121 (not .def_120))) (let ((.def_122 (* 1 x5))) (let ((.def_123 (< .def_122 (- 1)))) (let ((.def_124 (or .def_123 .def_121))) (let ((.def_125 (not .def_124))) (let ((.def_126 (< .def_14 (- 1)))) (let ((.def_127 (not .def_126))) (let ((.def_128 (or A5 .def_127))) (let ((.def_129 (or .def_128 .def_125))) (let ((.def_130 (not .def_129))) (let ((.def_131 (or .def_130 .def_119))) (let ((.def_132 (not .def_131))) (let ((.def_133 (or A7 .def_104))) (let ((.def_134 (not .def_133))) (let ((.def_135 (< .def_29 1))) (let ((.def_136 (or .def_135 A8))) (let ((.def_137 (not .def_136))) (let ((.def_138 (or .def_137 .def_134))) (let ((.def_139 (not .def_138))) (let ((.def_140 (and .def_0 .def_96))) (let ((.def_141 (+ .def_9 .def_67))) (let ((.def_142 (< .def_141 1))) (let ((.def_143 (not .def_142))) (let ((.def_144 (and .def_1 .def_143))) (let ((.def_145 (or .def_144 .def_140))) (let ((.def_146 (and .def_145 .def_139))) (let ((.def_147 (or .def_146 .def_132))) (let ((.def_148 (< .def_42 (- 1)))) (let ((.def_149 (not .def_148))) (let ((.def_150 (< .def_86 1))) (let ((.def_151 (not .def_150))) (let ((.def_152 (and .def_151 .def_149))) (let ((.def_153 (not .def_152))) (let ((.def_154 (* (- 1) x5))) (let ((.def_155 (* 1 x0))) (let ((.def_156 (+ .def_155 .def_154))) (let ((.def_157 (< .def_156 1))) (let ((.def_158 (not .def_157))) (let ((.def_159 (or .def_158 A5))) (let ((.def_160 (not .def_159))) (let ((.def_161 (or .def_160 .def_153))) (let ((.def_162 (or .def_18 A4))) (let ((.def_163 (not .def_162))) (let ((.def_164 (+ .def_155 .def_98))) (let ((.def_165 (< .def_164 1))) (let ((.def_166 (not .def_165))) (let ((.def_167 (and .def_148 .def_166))) (let ((.def_168 (or .def_167 .def_163))) (let ((.def_169 (or .def_168 .def_161))) (let ((.def_170 (+ .def_122 .def_89))) (let ((.def_171 (< .def_170 1))) (let ((.def_172 (not A9))) (let ((.def_173 (or .def_172 .def_171))) (let ((.def_174 (not .def_173))) (let ((.def_175 (not .def_100))) (let ((.def_176 (and .def_175 A0))) (let ((.def_177 (or .def_176 .def_174))) (let ((.def_178 (not .def_177))) (let ((.def_179 (not A8))) (let ((.def_180 (or .def_179 A9))) (let ((.def_181 (not .def_180))) (let ((.def_182 (+ .def_59 .def_45))) (let ((.def_183 (< .def_182 (- 1)))) (let ((.def_184 (or .def_183 .def_18))) (let ((.def_185 (and .def_184 .def_181))) (let ((.def_186 (or .def_185 .def_178))) (let ((.def_187 (and .def_186 .def_169))) (let ((.def_188 (not .def_187))) (let ((.def_189 (= .def_188 .def_147))) (let ((.def_190 (or .def_189 .def_112))) (let ((.def_191 (not A1))) (let ((.def_192 (+ .def_42 .def_154))) (let ((.def_193 (< .def_192 1))) (let ((.def_194 (and .def_193 .def_191))) (let ((.def_195 (and .def_0 .def_0))) (let ((.def_196 (and .def_195 .def_194))) (let ((.def_197 (not .def_196))) (let ((.def_198 (or .def_179 A5))) (let ((.def_199 (* 1 x8))) (let ((.def_200 (+ .def_14 .def_199))) (let ((.def_201 (< .def_200 (- 1)))) (let ((.def_202 (not .def_201))) (let ((.def_203 (< .def_34 (- 1)))) (let ((.def_204 (and .def_203 .def_202))) (let ((.def_205 (and .def_204 .def_198))) (let ((.def_206 (not .def_205))) (let ((.def_207 (or .def_206 .def_197))) (let ((.def_208 (not .def_207))) (let ((.def_209 (+ .def_89 .def_14))) (let ((.def_210 (< .def_209 1))) (let ((.def_211 (not .def_210))) (let ((.def_212 (and .def_211 A1))) (let ((.def_213 (= A3 .def_18))) (let ((.def_214 (not .def_213))) (let ((.def_215 (or .def_214 .def_212))) (let ((.def_216 (and .def_179 A9))) (let ((.def_217 (not .def_216))) (let ((.def_218 (+ .def_14 .def_67))) (let ((.def_219 (< .def_218 1))) (let ((.def_220 (not .def_219))) (let ((.def_221 (and .def_220 .def_1))) (let ((.def_222 (not .def_221))) (let ((.def_223 (and .def_222 .def_217))) (let ((.def_224 (not .def_223))) (let ((.def_225 (and .def_224 .def_215))) (let ((.def_226 (not .def_225))) (let ((.def_227 (or .def_226 .def_208))) (let ((.def_228 (not .def_227))) (let ((.def_229 (+ .def_73 .def_86))) (let ((.def_230 (< .def_229 (- 1)))) (let ((.def_231 (not .def_230))) (let ((.def_232 (or A8 .def_231))) (let ((.def_233 (and A4 A5))) (let ((.def_234 (or .def_233 .def_232))) (let ((.def_235 (< .def_45 1))) (let ((.def_236 (or A9 .def_235))) (let ((.def_237 (< .def_86 (- 1)))) (let ((.def_238 (or .def_237 .def_0))) (let ((.def_239 (not .def_238))) (let ((.def_240 (and .def_239 .def_236))) (let ((.def_241 (or .def_240 .def_234))) (let ((.def_242 (+ .def_25 .def_97))) (let ((.def_243 (< .def_242 1))) (let ((.def_244 (and A4 .def_243))) (let ((.def_245 (+ .def_45 .def_122))) (let ((.def_246 (< .def_245 1))) (let ((.def_247 (not .def_246))) (let ((.def_248 (= .def_247 .def_66))) (let ((.def_249 (not .def_248))) (let ((.def_250 (and .def_249 .def_244))) (let ((.def_251 (not .def_250))) (let ((.def_252 (< .def_155 1))) (let ((.def_253 (and A6 .def_252))) (let ((.def_254 (not .def_253))) (let ((.def_255 (< .def_97 (- 1)))) (let ((.def_256 (or .def_255 A7))) (let ((.def_257 (and .def_256 .def_254))) (let ((.def_258 (and .def_257 .def_251))) (let ((.def_259 (= .def_258 .def_241))) (let ((.def_260 (not .def_259))) (let ((.def_261 (or .def_260 .def_228))) (let ((.def_262 (or A2 A1))) (let ((.def_263 (< .def_154 1))) (let ((.def_264 (+ .def_3 .def_42))) (let ((.def_265 (< .def_264 (- 1)))) (let ((.def_266 (not .def_265))) (let ((.def_267 (= .def_266 .def_263))) (let ((.def_268 (and .def_267 .def_262))) (let ((.def_269 (not .def_268))) (let ((.def_270 (< .def_67 1))) (let ((.def_271 (or A0 .def_270))) (let ((.def_272 (not .def_271))) (let ((.def_273 (< .def_9 1))) (let ((.def_274 (not .def_273))) (let ((.def_275 (and .def_4 .def_274))) (let ((.def_276 (and .def_275 .def_272))) (let ((.def_277 (or .def_276 .def_269))) (let ((.def_278 (or .def_191 .def_148))) (let ((.def_279 (not .def_278))) (let ((.def_280 (and A4 .def_252))) (let ((.def_281 (or .def_280 .def_279))) (let ((.def_282 (+ .def_155 .def_29))) (let ((.def_283 (< .def_282 1))) (let ((.def_284 (and .def_96 .def_283))) (let ((.def_285 (+ .def_154 .def_97))) (let ((.def_286 (< .def_285 (- 1)))) (let ((.def_287 (not .def_286))) (let ((.def_288 (not .def_237))) (let ((.def_289 (or .def_288 .def_287))) (let ((.def_290 (not .def_289))) (let ((.def_291 (or .def_290 .def_284))) (let ((.def_292 (not .def_291))) (let ((.def_293 (and .def_292 .def_281))) (let ((.def_294 (or .def_293 .def_277))) (let ((.def_295 (not .def_294))) (let ((.def_296 (= .def_263 A6))) (let ((.def_297 (not .def_255))) (let ((.def_298 (or .def_297 .def_96))) (let ((.def_299 (and .def_298 .def_296))) (let ((.def_300 (not .def_299))) (let ((.def_301 (< .def_155 (- 1)))) (let ((.def_302 (not .def_301))) (let ((.def_303 (< .def_14 1))) (let ((.def_304 (not .def_303))) (let ((.def_305 (and .def_304 .def_302))) (let ((.def_306 (+ .def_3 .def_122))) (let ((.def_307 (< .def_306 (- 1)))) (let ((.def_308 (< .def_42 1))) (let ((.def_309 (or .def_308 .def_307))) (let ((.def_310 (not .def_309))) (let ((.def_311 (and .def_310 .def_305))) (let ((.def_312 (not .def_311))) (let ((.def_313 (and .def_312 .def_300))) (let ((.def_314 (not .def_313))) (let ((.def_315 (+ .def_98 .def_3))) (let ((.def_316 (< .def_315 (- 1)))) (let ((.def_317 (not .def_316))) (let ((.def_318 (or A1 .def_317))) (let ((.def_319 (not .def_318))) (let ((.def_320 (+ .def_86 .def_42))) (let ((.def_321 (< .def_320 1))) (let ((.def_322 (+ .def_25 .def_154))) (let ((.def_323 (< .def_322 1))) (let ((.def_324 (and .def_323 .def_321))) (let ((.def_325 (or .def_324 .def_319))) (let ((.def_326 (not .def_325))) (let ((.def_327 (< .def_73 (- 1)))) (let ((.def_328 (< .def_97 1))) (let ((.def_329 (or .def_328 .def_327))) (let ((.def_330 (not .def_329))) (let ((.def_331 (or .def_26 A6))) (let ((.def_332 (not .def_331))) (let ((.def_333 (or .def_332 .def_330))) (let ((.def_334 (= .def_333 .def_326))) (let ((.def_335 (and .def_334 .def_314))) (let ((.def_336 (or .def_335 .def_295))) (let ((.def_337 (not .def_336))) (let ((.def_338 (or .def_337 .def_261))) (let ((.def_339 (or .def_338 .def_190))) (let ((.def_340 (not .def_339))) (let ((.def_341 (<= x9 1))) (let ((.def_342 (<= 0 x9))) (let ((.def_343 (<= x8 1))) (let ((.def_344 (<= 0 x8))) (let ((.def_345 (<= x7 1))) (let ((.def_346 (<= 0 x7))) (let ((.def_347 (<= x6 1))) (let ((.def_348 (<= 0 x6))) (let ((.def_349 (<= x5 1))) (let ((.def_350 (<= 0 x5))) (let ((.def_351 (<= x4 1))) (let ((.def_352 (<= 0 x4))) (let ((.def_353 (<= x3 1))) (let ((.def_354 (<= 0 x3))) (let ((.def_355 (<= x2 1))) (let ((.def_356 (<= 0 x2))) (let ((.def_357 (<= x1 1))) (let ((.def_358 (<= 0 x1))) (let ((.def_359 (<= x0 1))) (let ((.def_360 (<= 0 x0))) (let ((.def_361 (and .def_360 .def_359 .def_358 .def_357 .def_356 .def_355 .def_354 .def_353 .def_352 .def_351 .def_350 .def_349 .def_348 .def_347 .def_346 .def_345 .def_344 .def_343 .def_342 .def_341 .def_340))) .def_361)))))))))))))))))))))))))))))))))))))))))))))))))))))))))))))))))))))))))))))))))))))))))))))))))))))))))))))))))))))))))))))))))))))))))))))))))))))))))))))))))))))))))))))))))))))))))))))))))))))))))))))))))))))))))))))))))))))))))))))))))))))))))))))))))))))))))))))))))))))))))))))))))))))))))))))))))))))))))))))))))))))))))))))))))))))))))))))))))))))))))))
(check-sat)
